max: -5.0v1  - 5.0v2  - 2.0v3 + 1.0v4 + 1.0v5 + 5.0v6 + 1.0v7 + 2.0v8  - 4.0v9  - 2.0v10  - 3.0v11 + 3.0v12  - 5.0v14  - 8.0v15  - 4.0v16 + 1.0v17  - 2.0v18 + 3.0v19 + 3.0v20 + 9.0v21 + 6.0v22  - 3.0v24  - 3.0v25 + 1.0v26  - 5.0v27 + 1.0v28 + 5.0v29 + 4.0v30 + 1.0v32 + 6.0v33 + 3.0v34  - 2.0v35  - 3.0v36  - 4.0v37 + 2.0v39 + 1.0v40 + 3.0v41  - 4.0v42  - 4.0v43 + 3.0v44  - 1.0v47 + 3.0v49 + 5.0v50;

1 - v24 + v10 + 1 - v48 >= 0;
v30 + v27 + 1 - v20 >= 0;
v4 + 1 - v43 + v44 >= 0;
v35 + v49 + 1 - v11 >= 0;
1 - v8 + 1 - v1 + 1 - v9 >= 0;
1 - v46 + v21 + 1 - v35 >= 0;
v31 + v40 + 1 - v20 >= 0;
v30 + v5 + v34 >= 0;
v48 + v45 + 1 - v15 >= 0;
v47 + v20 + 1 - v31 >= 0;
v30 + 1 - v6 + v49 >= 0;
1 - v9 + 1 - v29 + 1 - v48 >= 0;
v19 + 1 - v9 + v4 >= 0;
1 - v19 + 1 - v30 + v8 >= 0;
1 - v13 + 1 - v34 + 1 - v39 >= 0;
v22 + 1 - v18 + v5 >= 0;
v28 + v41 + v32 >= 0;
1 - v24 + 1 - v37 + v20 >= 0;
1 - v42 + 1 - v9 + v31 >= 0;
v19 + 1 - v4 + 1 - v2 >= 0;
v6 + 1 - v19 + 1 - v8 >= 0;
1 - v13 + 1 - v15 + 1 - v30 >= 0;
v5 + 1 - v14 + v35 >= 0;
1 - v26 + v33 + v7 >= 0;
v1 + v27 + v26 >= 0;
v13 + 1 - v42 + v24 >= 0;
1 - v35 + 1 - v44 + 1 - v43 >= 0;
v34 + 1 - v47 + v26 >= 0;
1 - v35 + v21 + v33 >= 0;
1 - v15 + v3 + v33 >= 0;
1 - v7 + 1 - v24 + 1 - v49 >= 0;
1 - v42 + v31 + v21 >= 0;
v26 + v44 + 1 - v1 >= 0;
1 - v1 + 1 - v37 + v10 >= 0;
v41 + 1 - v42 + 1 - v15 >= 0;
1 - v30 + v39 + 1 - v49 >= 0;
v5 + 1 - v10 + 1 - v25 >= 0;
1 - v29 + v20 + 1 - v27 >= 0;
1 - v18 + v22 + 1 - v16 >= 0;
v40 + v46 + v34 >= 0;
1 - v29 + 1 - v48 + v4 >= 0;
1 - v21 + v30 + v31 >= 0;
v29 + v33 + v44 >= 0;
1 - v34 + v30 + 1 - v36 >= 0;
v42 + 1 - v46 + v35 >= 0;
1 - v41 + v29 + 1 - v1 >= 0;
1 - v16 + v26 + v6 >= 0;
v21 + v49 + v42 >= 0;
v29 + 1 - v38 + 1 - v33 >= 0;
1 - v4 + v28 + 1 - v34 >= 0;
1 - v42 + 1 - v43 + v12 >= 0;
v18 + 1 - v2 + v43 >= 0;
v33 + 1 - v18 + v12 >= 0;
v28 + v12 + 1 - v3 >= 0;
1 - v49 + v29 + v18 >= 0;
1 - v16 + v9 + 1 - v12 >= 0;
1 - v43 + 1 - v19 + 1 - v50 >= 0;
v48 + 1 - v24 + 1 - v15 >= 0;
1 - v24 + 1 - v25 + 1 - v9 >= 0;
1 - v16 + v34 + 1 - v12 >= 0;
v2 + v31 + 1 - v38 >= 0;
v12 + 1 - v1 + 1 - v6 >= 0;
v8 + 1 - v33 + v21 >= 0;
1 - v20 + 1 - v14 + 1 - v43 >= 0;
v12 + 1 - v5 + 1 - v11 >= 0;
1 - v2 + v40 + v7 >= 0;
1 - v27 + 1 - v15 + 1 - v32 >= 0;
v33 + v32 + v50 >= 0;
v25 + 1 - v37 + 1 - v11 >= 0;
1 - v14 + v32 + 1 - v50 >= 0;
1 - v38 + v8 + 1 - v33 >= 0;
1 - v3 + 1 - v25 + v12 >= 0;
v14 + 1 - v33 + v43 >= 0;
1 - v32 + v12 + 1 - v2 >= 0;
1 - v31 + v27 + 1 - v9 >= 0;
1 - v6 + 1 - v1 + 1 - v35 >= 0;
1 - v35 + v29 + v19 >= 0;
1 - v6 + 1 - v27 + 1 - v1 >= 0;
v14 + v21 + v49 >= 0;
v43 + v44 + v39 >= 0;
v29 + 1 - v2 + v13 >= 0;
1 - v1 + v7 + 1 - v27 >= 0;
1 - v1 + 1 - v46 + 1 - v45 >= 0;
1 - v13 + v6 + 1 - v31 >= 0;
v20 + 1 - v12 + 1 - v32 >= 0;
v49 + 1 - v14 + v34 >= 0;
v19 + 1 - v30 + 1 - v45 >= 0;
v26 + v33 + v34 >= 0;
v37 + 1 - v23 + 1 - v47 >= 0;
v32 + 1 - v2 + v21 >= 0;
v1 + 1 - v50 + 1 - v36 >= 0;
v31 + 1 - v8 + v16 >= 0;
1 - v14 + 1 - v7 + v36 >= 0;
v13 + 1 - v17 + v25 >= 0;
v48 + v12 + v17 >= 0;
v20 + 1 - v15 + 1 - v3 >= 0;
v4 + 1 - v7 + v39 >= 0;
v22 + 1 - v45 + v28 >= 0;
1 - v10 + v4 + v25 >= 0;
v50 + 1 - v10 + 1 - v17 >= 0;
v19 + v47 + v46 >= 0;
1 - v3 + v6 + v29 >= 0;
1 - v11 + v46 + 1 - v5 >= 0;
v46 + 1 - v12 + v49 >= 0;
1 - v26 + v45 + 1 - v20 >= 0;
v23 + v30 + 1 - v44 >= 0;
1 - v40 + 1 - v3 + 1 - v18 >= 0;
1 - v5 + 1 - v23 + 1 - v32 >= 0;
v38 + 1 - v37 + 1 - v26 >= 0;
1 - v35 + 1 - v27 + v6 >= 0;
v50 + v17 + 1 - v46 >= 0;
v7 + v21 + v45 >= 0;
1 - v2 + v18 + v45 >= 0;
1 - v10 + v48 + 1 - v7 >= 0;
1 - v21 + v41 + v15 >= 0;
v28 + 1 - v17 + 1 - v19 >= 0;
v17 + v40 + v7 >= 0;
1 - v33 + 1 - v16 + 1 - v39 >= 0;
1 - v47 + v9 + 1 - v3 >= 0;
1 - v14 + v44 + v6 >= 0;
1 - v18 + v28 + v26 >= 0;
v8 + v1 + 1 - v19 >= 0;
1 - v2 + 1 - v30 + 1 - v28 >= 0;
1 - v25 + 1 - v36 + v22 >= 0;
1 - v19 + 1 - v43 + 1 - v24 >= 0;
1 - v1 + v8 + v7 >= 0;
v49 + 1 - v20 + 1 - v38 >= 0;
1 - v18 + 1 - v13 + 1 - v4 >= 0;
1 - v21 + v26 + 1 - v1 >= 0;
1 - v17 + 1 - v48 + v45 >= 0;
1 - v21 + v30 + v33 >= 0;
1 - v46 + 1 - v20 + v22 >= 0;
v10 + v5 + v18 >= 0;
1 - v42 + v22 + 1 - v34 >= 0;
v19 + 1 - v37 + v36 >= 0;
v38 + v47 + v46 >= 0;
1 - v22 + v20 + v37 >= 0;
v48 + v12 + 1 - v28 >= 0;
v23 + v15 + v50 >= 0;
1 - v45 + 1 - v26 + 1 - v6 >= 0;
1 - v46 + 1 - v25 + v29 >= 0;
1 - v8 + v17 + v21 >= 0;
1 - v17 + v8 + v34 >= 0;
v23 + v46 + 1 - v22 >= 0;
1 - v43 + 1 - v47 + 1 - v5 >= 0;
v30 + v22 + v17 >= 0;
1 - v10 + v20 + 1 - v29 >= 0;
1 - v3 + v30 + v46 >= 0;
v44 + v46 + v14 >= 0;
1 - v45 + v11 + 1 - v12 >= 0;
v41 + 1 - v40 + v9 >= 0;
1 - v19 + 1 - v7 + v41 >= 0;
1 - v36 + v39 + v33 >= 0;
v49 + 1 - v18 + v2 >= 0;
1 - v26 + 1 - v28 + 1 - v31 >= 0;
1 - v25 + v16 + 1 - v29 >= 0;
1 - v5 + 1 - v42 + v33 >= 0;
1 - v48 + v25 + 1 - v8 >= 0;
1 - v36 + v3 + 1 - v1 >= 0;
1 - v7 + 1 - v40 + 1 - v11 >= 0;
1 - v28 + v2 + 1 - v7 >= 0;
1 - v40 + v17 + 1 - v15 >= 0;
v32 + 1 - v31 + v42 >= 0;
1 - v48 + v38 + v25 >= 0;
1 - v41 + v42 + v19 >= 0;
v6 + v21 + 1 - v7 >= 0;
v44 + 1 - v45 + v48 >= 0;
1 - v42 + v11 + v34 >= 0;
v7 + v20 + 1 - v31 >= 0;
v44 + v50 + v7 >= 0;
1 - v27 + 1 - v39 + 1 - v17 >= 0;
1 - v33 + v38 + 1 - v46 >= 0;
v33 + 1 - v27 + 1 - v32 >= 0;
v22 + v18 + v6 >= 0;
1 - v41 + 1 - v15 + 1 - v14 >= 0;
v8 + v14 + v21 >= 0;
v23 + v35 + v2 >= 0;
1 - v17 + v7 + 1 - v44 >= 0;
v48 + 1 - v44 + 1 - v10 >= 0;
1 - v18 + 1 - v37 + 1 - v46 >= 0;
1 - v13 + v42 + 1 - v47 >= 0;
1 - v47 + v40 + v33 >= 0;
v15 + v24 + 1 - v14 >= 0;
v1 + v19 + v29 >= 0;
1 - v42 + v40 + 1 - v12 >= 0;
v20 + v33 + v38 >= 0;
1 - v15 + v13 + v44 >= 0;
1 - v4 + 1 - v25 + v18 >= 0;
1 - v34 + 1 - v15 + v32 >= 0;
v35 + 1 - v26 + v18 >= 0;
v41 + 1 - v28 + v50 >= 0;
v21 + v6 + 1 - v48 >= 0;
1 - v22 + v41 + v24 >= 0;
v41 + v7 + v34 >= 0;
1 - v28 + v35 + 1 - v46 >= 0;
v8 + v47 + v19 >= 0;
v12 + 1 - v25 + 1 - v18 >= 0;
1 - v9 + v13 + 1 - v23 >= 0;
1 - v2 + v42 + v3 >= 0;
v6 + 1 - v41 + 1 - v38 >= 0;
1 - v42 + 1 - v40 + v10 >= 0;
v11 + v18 + v39 >= 0;
v28 + v22 + 1 - v44 >= 0;
1 - v12 + 1 - v14 + 1 - v43 >= 0;
v3 + v17 + 1 - v34 >= 0;
v46 + 1 - v43 + v17 >= 0;
v26 + v3 + 1 - v27 >= 0;
1 - v35 + v50 + 1 - v7 >= 0;
v19 + v22 + v43 >= 0;
1 - v8 + 1 - v22 + 1 - v35 >= 0;
1 - v18 + v21 + v29 >= 0;
v43 + v1 + 1 - v23 >= 0;
v5 + 1 - v49 + v45 >= 0;
1 - v41 + v47 + 1 - v26 >= 0;
v1 + 1 - v16 + v36 >= 0;
v25 + 1 - v11 + v50 >= 0;
v1 + 1 - v36 + 1 - v44 >= 0;
1 - v25 + 1 - v49 + 1 - v33 >= 0;
0 <= v1 <= 1;
0 <= v2 <= 1;
0 <= v3 <= 1;
0 <= v4 <= 1;
0 <= v5 <= 1;
0 <= v6 <= 1;
0 <= v7 <= 1;
0 <= v8 <= 1;
0 <= v9 <= 1;
0 <= v10 <= 1;
0 <= v11 <= 1;
0 <= v12 <= 1;
0 <= v13 <= 1;
0 <= v14 <= 1;
0 <= v15 <= 1;
0 <= v16 <= 1;
0 <= v17 <= 1;
0 <= v18 <= 1;
0 <= v19 <= 1;
0 <= v20 <= 1;
0 <= v21 <= 1;
0 <= v22 <= 1;
0 <= v23 <= 1;
0 <= v24 <= 1;
0 <= v25 <= 1;
0 <= v26 <= 1;
0 <= v27 <= 1;
0 <= v28 <= 1;
0 <= v29 <= 1;
0 <= v30 <= 1;
0 <= v31 <= 1;
0 <= v32 <= 1;
0 <= v33 <= 1;
0 <= v34 <= 1;
0 <= v35 <= 1;
0 <= v36 <= 1;
0 <= v37 <= 1;
0 <= v38 <= 1;
0 <= v39 <= 1;
0 <= v40 <= 1;
0 <= v41 <= 1;
0 <= v42 <= 1;
0 <= v43 <= 1;
0 <= v44 <= 1;
0 <= v45 <= 1;
0 <= v46 <= 1;
0 <= v47 <= 1;
0 <= v48 <= 1;
0 <= v49 <= 1;
0 <= v50 <= 1;
